sat
((rprim_1_1 1))
((rprim_1_2 4))
((rprim_1_3 5))
((rprim_1_4 20))
((rprim_1_5 7))
((rprim_1_6 1))
((rprim_1_7 17))
((rprim_1_8 18))
((rprim_1_9 1))
((rprim_1_10 20))
((rprim_1_11 1))
((rprim_1_12 15))
((rprim_1_13 1))
((rprim_1_14 12))
((rprim_1_15 6))
((rprim_1_16 18))
((rprim_1_17 18))
((rprim_1_18 18))
((rprim_1_19 3))
((rprim_1_20 1))
((rprim_1_21 1))
((rprim_1_22 1))
((rprim_1_23 7))
((rprim_1_24 20))
((rprim_1_25 12))
((rprim_1_26 19))
((rprim_1_27 15))
((rprim_1_28 1))
((rprim_1_29 17))
((rprim_1_30 1))
((rprim_1_31 1))
((rprim_1_32 21))
((rprim_1_33 21))
((rprim_1_34 1))
((rprim_1_35 1))
((rprim_1_36 18))
((rprim_1_37 1))
((rprim_1_38 1))
((rprim_2_1 7))
((rprim_2_2 20))
((rprim_2_3 20))
((rprim_2_4 20))
((rprim_2_5 20))
((rprim_2_6 6))
((rprim_2_7 10))
((rprim_2_8 20))
((rprim_2_9 1))
((rprim_2_10 17))
((rprim_2_11 18))
((rprim_2_12 1))
((rprim_2_13 1))
((rprim_2_14 15))
((rprim_2_15 20))
((rprim_2_16 2))
((rprim_2_17 20))
((rprim_2_18 1))
((rprim_2_19 1))
((rprim_2_20 16))
((rprim_2_21 21))
((rprim_2_22 21))
((rprim_2_23 1))
((rprim_2_24 19))
((rprim_2_25 19))
((rprim_2_26 1))
((rprim_2_27 14))
((rprim_2_28 18))
((rprim_2_29 14))
((rprim_2_30 1))
((rprim_2_31 1))
((rprim_2_32 1))
((rprim_2_33 17))
((rprim_2_34 18))
((rprim_2_35 18))
((rprim_2_36 17))
((rprim_2_37 1))
((rprim_2_38 1))
((rcost_1_1 0.0))
((rcost_1_2 2.0))
((rcost_1_3 2.0))
((rcost_1_4 4.0))
((rcost_1_5 3.0))
((rcost_1_6 0.0))
((rcost_1_7 4.0))
((rcost_1_8 4.0))
((rcost_1_9 0.0))
((rcost_1_10 4.0))
((rcost_1_11 0.0))
((rcost_1_12 4.0))
((rcost_1_13 0.0))
((rcost_1_14 3.0))
((rcost_1_15 3.0))
((rcost_1_16 4.0))
((rcost_1_17 4.0))
((rcost_1_18 4.0))
((rcost_1_19 2.0))
((rcost_1_20 0.0))
((rcost_1_21 0.0))
((rcost_1_22 0.0))
((rcost_1_23 3.0))
((rcost_1_24 4.0))
((rcost_1_25 3.0))
((rcost_1_26 4.0))
((rcost_1_27 4.0))
((rcost_1_28 0.0))
((rcost_1_29 4.0))
((rcost_1_30 0.0))
((rcost_1_31 0.0))
((rcost_1_32 4.0))
((rcost_1_33 4.0))
((rcost_1_34 0.0))
((rcost_1_35 0.0))
((rcost_1_36 4.0))
((rcost_1_37 0.0))
((rcost_1_38 0.0))
((rcost_2_1 3.0))
((rcost_2_2 4.0))
((rcost_2_3 4.0))
((rcost_2_4 4.0))
((rcost_2_5 4.0))
((rcost_2_6 3.0))
((rcost_2_7 3.0))
((rcost_2_8 4.0))
((rcost_2_9 0.0))
((rcost_2_10 4.0))
((rcost_2_11 4.0))
((rcost_2_12 0.0))
((rcost_2_13 0.0))
((rcost_2_14 4.0))
((rcost_2_15 4.0))
((rcost_2_16 2.0))
((rcost_2_17 4.0))
((rcost_2_18 0.0))
((rcost_2_19 0.0))
((rcost_2_20 4.0))
((rcost_2_21 4.0))
((rcost_2_22 4.0))
((rcost_2_23 0.0))
((rcost_2_24 4.0))
((rcost_2_25 4.0))
((rcost_2_26 0.0))
((rcost_2_27 4.0))
((rcost_2_28 4.0))
((rcost_2_29 4.0))
((rcost_2_30 0.0))
((rcost_2_31 0.0))
((rcost_2_32 0.0))
((rcost_2_33 4.0))
((rcost_2_34 4.0))
((rcost_2_35 4.0))
((rcost_2_36 4.0))
((rcost_2_37 0.0))
((rcost_2_38 0.0))
((rx_1_1 10))
((ry_1_1 4))
((rx_1_2 10))
((ry_1_2 4))
((rx_1_3 9))
((ry_1_3 4))
((rx_1_4 9))
((ry_1_4 5))
((rx_1_5 6))
((ry_1_5 5))
((rx_1_6 5))
((ry_1_6 6))
((rx_1_7 5))
((ry_1_7 6))
((rx_1_8 7))
((ry_1_8 4))
((rx_1_9 10))
((ry_1_9 4))
((rx_1_10 10))
((ry_1_10 4))
((rx_1_11 7))
((ry_1_11 4))
((rx_1_12 7))
((ry_1_12 4))
((rx_1_13 5))
((ry_1_13 6))
((rx_1_14 5))
((ry_1_14 6))
((rx_1_15 3))
((ry_1_15 6))
((rx_1_16 4))
((ry_1_16 7))
((rx_1_17 7))
((ry_1_17 7))
((rx_1_18 10))
((ry_1_18 7))
((rx_1_19 13))
((ry_1_19 7))
((rx_1_20 13))
((ry_1_20 6))
((rx_1_21 13))
((ry_1_21 6))
((rx_1_22 13))
((ry_1_22 6))
((rx_1_23 13))
((ry_1_23 6))
((rx_1_24 12))
((ry_1_24 7))
((rx_1_25 9))
((ry_1_25 7))
((rx_1_26 7))
((ry_1_26 7))
((rx_1_27 7))
((ry_1_27 10))
((rx_1_28 5))
((ry_1_28 12))
((rx_1_29 5))
((ry_1_29 12))
((rx_1_30 7))
((ry_1_30 10))
((rx_1_31 7))
((ry_1_31 10))
((rx_1_32 7))
((ry_1_32 10))
((rx_1_33 7))
((ry_1_33 7))
((rx_1_34 7))
((ry_1_34 4))
((rx_1_35 7))
((ry_1_35 4))
((rx_1_36 7))
((ry_1_36 4))
((rx_1_37 10))
((ry_1_37 4))
((rx_1_38 10))
((ry_1_38 4))
((rx_1_39 10))
((ry_1_39 4))
((rx_2_1 18))
((ry_2_1 10))
((rx_2_2 17))
((ry_2_2 11))
((rx_2_3 14))
((ry_2_3 11))
((rx_2_4 11))
((ry_2_4 11))
((rx_2_5 8))
((ry_2_5 11))
((rx_2_6 5))
((ry_2_6 11))
((rx_2_7 6))
((ry_2_7 12))
((rx_2_8 8))
((ry_2_8 12))
((rx_2_9 5))
((ry_2_9 12))
((rx_2_10 5))
((ry_2_10 12))
((rx_2_11 7))
((ry_2_11 10))
((rx_2_12 10))
((ry_2_12 10))
((rx_2_13 10))
((ry_2_13 10))
((rx_2_14 10))
((ry_2_14 10))
((rx_2_15 8))
((ry_2_15 12))
((rx_2_16 5))
((ry_2_16 12))
((rx_2_17 6))
((ry_2_17 12))
((rx_2_18 3))
((ry_2_18 12))
((rx_2_19 3))
((ry_2_19 12))
((rx_2_20 3))
((ry_2_20 12))
((rx_2_21 1))
((ry_2_21 10))
((rx_2_22 1))
((ry_2_22 7))
((rx_2_23 1))
((ry_2_23 4))
((rx_2_24 1))
((ry_2_24 4))
((rx_2_25 1))
((ry_2_25 7))
((rx_2_26 1))
((ry_2_26 10))
((rx_2_27 1))
((ry_2_27 10))
((rx_2_28 3))
((ry_2_28 12))
((rx_2_29 6))
((ry_2_29 12))
((rx_2_30 8))
((ry_2_30 14))
((rx_2_31 8))
((ry_2_31 14))
((rx_2_32 8))
((ry_2_32 14))
((rx_2_33 8))
((ry_2_33 14))
((rx_2_34 10))
((ry_2_34 12))
((rx_2_35 13))
((ry_2_35 12))
((rx_2_36 16))
((ry_2_36 12))
((rx_2_37 18))
((ry_2_37 10))
((rx_2_38 18))
((ry_2_38 10))
((rx_2_39 18))
((ry_2_39 10))
((rechassigned_1_1 0))
((rechassigned_1_2 0))
((rechassigned_1_3 0))
((rechassigned_1_4 0))
((rechassigned_1_5 0))
((rechassigned_1_6 1))
((rechassigned_1_7 0))
((rechassigned_1_8 0))
((rechassigned_1_9 0))
((rechassigned_1_10 0))
((rechassigned_1_11 1))
((rechassigned_1_12 0))
((rechassigned_1_13 1))
((rechassigned_1_14 0))
((rechassigned_1_15 0))
((rechassigned_1_16 0))
((rechassigned_1_17 0))
((rechassigned_1_18 0))
((rechassigned_1_19 0))
((rechassigned_1_20 0))
((rechassigned_1_21 0))
((rechassigned_1_22 0))
((rechassigned_1_23 2))
((rechassigned_1_24 0))
((rechassigned_1_25 0))
((rechassigned_1_26 0))
((rechassigned_1_27 0))
((rechassigned_1_28 0))
((rechassigned_1_29 0))
((rechassigned_1_30 0))
((rechassigned_1_31 0))
((rechassigned_1_32 0))
((rechassigned_1_33 0))
((rechassigned_1_34 1))
((rechassigned_1_35 1))
((rechassigned_1_36 0))
((rechassigned_1_37 0))
((rechassigned_1_38 0))
((rechassigned_1_39 0))
((rechassigned_2_1 0))
((rechassigned_2_2 0))
((rechassigned_2_3 0))
((rechassigned_2_4 0))
((rechassigned_2_5 0))
((rechassigned_2_6 0))
((rechassigned_2_7 0))
((rechassigned_2_8 0))
((rechassigned_2_9 1))
((rechassigned_2_10 0))
((rechassigned_2_11 0))
((rechassigned_2_12 0))
((rechassigned_2_13 0))
((rechassigned_2_14 0))
((rechassigned_2_15 0))
((rechassigned_2_16 0))
((rechassigned_2_17 0))
((rechassigned_2_18 0))
((rechassigned_2_19 0))
((rechassigned_2_20 0))
((rechassigned_2_21 1))
((rechassigned_2_22 1))
((rechassigned_2_23 0))
((rechassigned_2_24 0))
((rechassigned_2_25 0))
((rechassigned_2_26 0))
((rechassigned_2_27 0))
((rechassigned_2_28 0))
((rechassigned_2_29 0))
((rechassigned_2_30 0))
((rechassigned_2_31 0))
((rechassigned_2_32 0))
((rechassigned_2_33 0))
((rechassigned_2_34 0))
((rechassigned_2_35 0))
((rechassigned_2_36 0))
((rechassigned_2_37 1))
((rechassigned_2_38 1))
((rechassigned_2_39 0))
((rechassigned_3_1 0))
((rechassigned_3_2 0))
((rechassigned_3_3 0))
((rechassigned_3_4 0))
((rechassigned_3_5 0))
((rechassigned_3_6 0))
((rechassigned_3_7 0))
((rechassigned_3_8 0))
((rechassigned_3_9 0))
((rechassigned_3_10 0))
((rechassigned_3_11 0))
((rechassigned_3_12 2))
((rechassigned_3_13 2))
((rechassigned_3_14 0))
((rechassigned_3_15 0))
((rechassigned_3_16 0))
((rechassigned_3_17 0))
((rechassigned_3_18 0))
((rechassigned_3_19 0))
((rechassigned_3_20 1))
((rechassigned_3_21 0))
((rechassigned_3_22 0))
((rechassigned_3_23 0))
((rechassigned_3_24 0))
((rechassigned_3_25 0))
((rechassigned_3_26 0))
((rechassigned_3_27 0))
((rechassigned_3_28 0))
((rechassigned_3_29 0))
((rechassigned_3_30 0))
((rechassigned_3_31 0))
((rechassigned_3_32 0))
((rechassigned_3_33 0))
((rechassigned_3_34 0))
((rechassigned_3_35 0))
((rechassigned_3_36 0))
((rechassigned_3_37 2))
((rechassigned_3_38 2))
((rechassigned_3_39 0))
((rechassigned_4_1 0))
((rechassigned_4_2 0))
((rechassigned_4_3 0))
((rechassigned_4_4 0))
((rechassigned_4_5 0))
((rechassigned_4_6 0))
((rechassigned_4_7 0))
((rechassigned_4_8 0))
((rechassigned_4_9 0))
((rechassigned_4_10 0))
((rechassigned_4_11 0))
((rechassigned_4_12 0))
((rechassigned_4_13 1))
((rechassigned_4_14 0))
((rechassigned_4_15 0))
((rechassigned_4_16 0))
((rechassigned_4_17 0))
((rechassigned_4_18 2))
((rechassigned_4_19 0))
((rechassigned_4_20 0))
((rechassigned_4_21 0))
((rechassigned_4_22 0))
((rechassigned_4_23 0))
((rechassigned_4_24 0))
((rechassigned_4_25 0))
((rechassigned_4_26 2))
((rechassigned_4_27 0))
((rechassigned_4_28 0))
((rechassigned_4_29 0))
((rechassigned_4_30 1))
((rechassigned_4_31 1))
((rechassigned_4_32 0))
((rechassigned_4_33 0))
((rechassigned_4_34 0))
((rechassigned_4_35 0))
((rechassigned_4_36 0))
((rechassigned_4_37 0))
((rechassigned_4_38 0))
((rechassigned_4_39 0))
((rechassigned_5_1 0))
((rechassigned_5_2 0))
((rechassigned_5_3 0))
((rechassigned_5_4 0))
((rechassigned_5_5 0))
((rechassigned_5_6 0))
((rechassigned_5_7 0))
((rechassigned_5_8 0))
((rechassigned_5_9 2))
((rechassigned_5_10 0))
((rechassigned_5_11 0))
((rechassigned_5_12 0))
((rechassigned_5_13 0))
((rechassigned_5_14 0))
((rechassigned_5_15 0))
((rechassigned_5_16 0))
((rechassigned_5_17 0))
((rechassigned_5_18 2))
((rechassigned_5_19 2))
((rechassigned_5_20 0))
((rechassigned_5_21 0))
((rechassigned_5_22 0))
((rechassigned_5_23 0))
((rechassigned_5_24 0))
((rechassigned_5_25 0))
((rechassigned_5_26 0))
((rechassigned_5_27 0))
((rechassigned_5_28 1))
((rechassigned_5_29 0))
((rechassigned_5_30 0))
((rechassigned_5_31 2))
((rechassigned_5_32 2))
((rechassigned_5_33 0))
((rechassigned_5_34 0))
((rechassigned_5_35 0))
((rechassigned_5_36 0))
((rechassigned_5_37 0))
((rechassigned_5_38 0))
((rechassigned_5_39 0))
((total_rcost 0))
((lastrech_1_30 false))
((lastrech_1_31 false))
((lastrech_1_32 false))
((lastrech_1_33 false))
((lastrech_1_34 true))
((lastrech_1_35 false))
((lastrech_1_36 false))
((lastrech_1_37 false))
((lastrech_2_30 false))
((lastrech_2_31 false))
((lastrech_2_32 false))
((lastrech_2_33 false))
((lastrech_2_34 false))
((lastrech_2_35 false))
((lastrech_2_36 false))
((lastrech_2_37 true))
((lastrech_3_30 false))
((lastrech_3_31 false))
((lastrech_3_32 false))
((lastrech_3_33 false))
((lastrech_3_34 false))
((lastrech_3_35 false))
((lastrech_3_36 false))
((lastrech_3_37 true))
((lastrech_4_30 true))
((lastrech_4_31 false))
((lastrech_4_32 false))
((lastrech_4_33 false))
((lastrech_4_34 false))
((lastrech_4_35 false))
((lastrech_4_36 false))
((lastrech_4_37 false))
((lastrech_5_30 false))
((lastrech_5_31 true))
((lastrech_5_32 false))
((lastrech_5_33 false))
((lastrech_5_34 false))
((lastrech_5_35 false))
((lastrech_5_36 false))
((lastrech_5_37 false))
